p cnf 420 1087
-33 -35 0
34 -35 0
33 -34 35 0
-33 -36 0
-34 -36 0
33 34 36 0
-33 -38 0
-34 -38 0
37 -38 0
33 34 -37 38 0
-33 -39 0
-34 -39 0
-37 -39 0
33 34 37 39 0
-33 -41 0
-34 -41 0
-37 -41 0
40 -41 0
33 34 37 -40 41 0
-33 -42 0
-34 -42 0
-37 -42 0
-40 -42 0
33 34 37 40 42 0
-33 -44 0
-34 -44 0
-37 -44 0
-40 -44 0
43 -44 0
33 34 37 40 -43 44 0
-33 -45 0
-34 -45 0
-37 -45 0
-40 -45 0
-43 -45 0
33 34 37 40 43 45 0
-33 -47 0
-34 -47 0
-37 -47 0
-40 -47 0
-43 -47 0
46 -47 0
33 34 37 40 43 -46 47 0
-33 -48 0
-34 -48 0
-37 -48 0
-40 -48 0
-43 -48 0
-46 -48 0
33 34 37 40 43 46 48 0
-33 -50 0
-34 -50 0
-37 -50 0
-40 -50 0
-43 -50 0
-46 -50 0
49 -50 0
33 34 37 40 43 46 -49 50 0
-33 -51 0
-34 -51 0
-37 -51 0
-40 -51 0
-43 -51 0
-46 -51 0
-49 -51 0
33 34 37 40 43 46 49 51 0
-33 -53 0
-34 -53 0
-37 -53 0
-40 -53 0
-43 -53 0
-46 -53 0
-49 -53 0
52 -53 0
33 34 37 40 43 46 49 -52 53 0
-33 -54 0
-34 -54 0
-37 -54 0
-40 -54 0
-43 -54 0
-46 -54 0
-49 -54 0
-52 -54 0
33 34 37 40 43 46 49 52 54 0
-33 -56 0
-34 -56 0
-37 -56 0
-40 -56 0
-43 -56 0
-46 -56 0
-49 -56 0
-52 -56 0
55 -56 0
33 34 37 40 43 46 49 52 -55 56 0
-33 -57 0
-34 -57 0
-37 -57 0
-40 -57 0
-43 -57 0
-46 -57 0
-49 -57 0
-52 -57 0
-55 -57 0
33 34 37 40 43 46 49 52 55 57 0
58 0
-59 -91 0
60 -91 0
61 -91 0
62 -91 0
63 -91 0
-64 -91 0
65 -91 0
-66 -91 0
67 -91 0
68 -91 0
69 -91 0
70 -91 0
71 -91 0
-72 -91 0
-73 -91 0
74 -91 0
-75 -91 0
76 -91 0
-77 -91 0
-78 -91 0
-79 -91 0
-80 -91 0
-81 -91 0
-82 -91 0
83 -91 0
84 -91 0
-85 -91 0
86 -91 0
-87 -91 0
88 -91 0
-89 -91 0
90 -91 0
59 -60 -61 -62 -63 64 -65 66 -67 -68 -69 -70 -71 72 73 -74 75 -76 77 78 79 80 81 82 -83 -84 85 -86 87 -88 89 -90 91 0
-33 -91 -92 0
33 91 -92 0
-33 91 92 0
33 -91 92 0
-92 0
59 -93 0
60 -93 0
61 -93 0
62 -93 0
-63 -93 0
64 -93 0
-65 -93 0
66 -93 0
-67 -93 0
-68 -93 0
-69 -93 0
-70 -93 0
71 -93 0
72 -93 0
-73 -93 0
-74 -93 0
75 -93 0
-76 -93 0
77 -93 0
-78 -93 0
79 -93 0
80 -93 0
81 -93 0
-82 -93 0
-83 -93 0
-84 -93 0
85 -93 0
-86 -93 0
87 -93 0
88 -93 0
89 -93 0
90 -93 0
-59 -60 -61 -62 63 -64 65 -66 67 68 69 70 -71 -72 73 74 -75 76 -77 78 -79 -80 -81 82 83 84 -85 86 -87 -88 -89 -90 93 0
-34 -93 -94 0
34 93 -94 0
-34 93 94 0
34 -93 94 0
-94 0
-59 -95 0
60 -95 0
61 -95 0
62 -95 0
-63 -95 0
64 -95 0
65 -95 0
66 -95 0
67 -95 0
68 -95 0
69 -95 0
-70 -95 0
71 -95 0
-72 -95 0
73 -95 0
-74 -95 0
75 -95 0
-76 -95 0
-77 -95 0
78 -95 0
-79 -95 0
-80 -95 0
-81 -95 0
82 -95 0
83 -95 0
-84 -95 0
85 -95 0
-86 -95 0
-87 -95 0
-88 -95 0
-89 -95 0
-90 -95 0
59 -60 -61 -62 63 -64 -65 -66 -67 -68 -69 70 -71 72 -73 74 -75 76 77 -78 79 80 81 -82 -83 84 -85 86 87 88 89 90 95 0
-37 -95 -96 0
37 95 -96 0
-37 95 96 0
37 -95 96 0
-96 0
59 -97 0
60 -97 0
-61 -97 0
-62 -97 0
-63 -97 0
-64 -97 0
-65 -97 0
-66 -97 0
67 -97 0
68 -97 0
-69 -97 0
70 -97 0
71 -97 0
72 -97 0
73 -97 0
74 -97 0
75 -97 0
-76 -97 0
77 -97 0
-78 -97 0
79 -97 0
-80 -97 0
81 -97 0
-82 -97 0
-83 -97 0
84 -97 0
85 -97 0
86 -97 0
87 -97 0
88 -97 0
89 -97 0
-90 -97 0
-59 -60 61 62 63 64 65 66 -67 -68 69 -70 -71 -72 -73 -74 -75 76 -77 78 -79 80 -81 82 83 -84 -85 -86 -87 -88 -89 90 97 0
-40 -97 -98 0
40 97 -98 0
-40 97 98 0
40 -97 98 0
-98 0
59 -99 0
-60 -99 0
61 -99 0
-62 -99 0
-63 -99 0
64 -99 0
-65 -99 0
66 -99 0
67 -99 0
-68 -99 0
-69 -99 0
70 -99 0
71 -99 0
-72 -99 0
73 -99 0
74 -99 0
75 -99 0
-76 -99 0
-77 -99 0
-78 -99 0
-79 -99 0
80 -99 0
81 -99 0
-82 -99 0
83 -99 0
84 -99 0
-85 -99 0
-86 -99 0
87 -99 0
88 -99 0
-89 -99 0
-90 -99 0
-59 60 -61 62 63 -64 65 -66 -67 68 69 -70 -71 72 -73 -74 -75 76 77 78 79 -80 -81 82 -83 -84 85 86 -87 -88 89 90 99 0
-43 -99 -100 0
43 99 -100 0
-43 99 100 0
43 -99 100 0
-100 0
59 -101 0
60 -101 0
-61 -101 0
62 -101 0
-63 -101 0
-64 -101 0
65 -101 0
-66 -101 0
-67 -101 0
-68 -101 0
69 -101 0
70 -101 0
-71 -101 0
72 -101 0
-73 -101 0
74 -101 0
-75 -101 0
-76 -101 0
77 -101 0
-78 -101 0
-79 -101 0
-80 -101 0
81 -101 0
82 -101 0
-83 -101 0
-84 -101 0
-85 -101 0
86 -101 0
-87 -101 0
88 -101 0
-89 -101 0
-90 -101 0
-59 -60 61 -62 63 64 -65 66 67 68 -69 -70 71 -72 73 -74 75 76 -77 78 79 80 -81 -82 83 84 85 -86 87 -88 89 90 101 0
-46 -101 -102 0
46 101 -102 0
-46 101 102 0
46 -101 102 0
-102 0
-59 -103 0
60 -103 0
61 -103 0
-62 -103 0
-63 -103 0
-64 -103 0
65 -103 0
66 -103 0
-67 -103 0
68 -103 0
69 -103 0
70 -103 0
-71 -103 0
72 -103 0
73 -103 0
-74 -103 0
-75 -103 0
-76 -103 0
77 -103 0
78 -103 0
79 -103 0
80 -103 0
-81 -103 0
-82 -103 0
-83 -103 0
-84 -103 0
-85 -103 0
-86 -103 0
-87 -103 0
88 -103 0
89 -103 0
-90 -103 0
59 -60 -61 62 63 64 -65 -66 67 -68 -69 -70 71 -72 -73 74 75 76 -77 -78 -79 -80 81 82 83 84 85 86 87 -88 -89 90 103 0
-49 -103 -104 0
49 103 -104 0
-49 103 104 0
49 -103 104 0
-104 0
-59 -105 0
-60 -105 0
61 -105 0
-62 -105 0
63 -105 0
64 -105 0
-65 -105 0
-66 -105 0
67 -105 0
68 -105 0
69 -105 0
70 -105 0
71 -105 0
-72 -105 0
-73 -105 0
-74 -105 0
75 -105 0
76 -105 0
-77 -105 0
78 -105 0
79 -105 0
-80 -105 0
-81 -105 0
82 -105 0
-83 -105 0
-84 -105 0
-85 -105 0
-86 -105 0
-87 -105 0
88 -105 0
89 -105 0
90 -105 0
59 60 -61 62 -63 -64 65 66 -67 -68 -69 -70 -71 72 73 74 -75 -76 77 -78 -79 80 81 -82 83 84 85 86 87 -88 -89 -90 105 0
-52 -105 -106 0
52 105 -106 0
-52 105 106 0
52 -105 106 0
-106 0
59 -107 0
-60 -107 0
-61 -107 0
-62 -107 0
-63 -107 0
-64 -107 0
-65 -107 0
66 -107 0
-67 -107 0
-68 -107 0
-69 -107 0
-70 -107 0
-71 -107 0
-72 -107 0
-73 -107 0
-74 -107 0
-75 -107 0
-76 -107 0
-77 -107 0
-78 -107 0
-79 -107 0
-80 -107 0
-81 -107 0
-82 -107 0
-83 -107 0
-84 -107 0
-85 -107 0
-86 -107 0
-87 -107 0
-88 -107 0
-89 -107 0
-90 -107 0
-59 60 61 62 63 64 65 -66 67 68 69 70 71 72 73 74 75 76 77 78 79 80 81 82 83 84 85 86 87 88 89 90 107 0
-55 -107 -108 0
55 107 -108 0
-55 107 108 0
55 -107 108 0
-108 0
-52 -109 0
55 -109 0
52 -55 109 0
-52 -110 0
-55 -110 0
52 55 110 0
-52 -111 0
55 -111 0
52 -55 111 0
-52 112 0
55 112 0
52 -55 -112 0
-52 -113 0
-55 -113 0
52 55 113 0
-52 114 0
55 114 0
52 -55 -114 0
-52 115 0
55 115 0
52 -55 -115 0
-52 -116 0
-55 -116 0
52 55 116 0
-52 117 0
55 117 0
52 -55 -117 0
-49 -118 0
109 -118 0
49 -109 118 0
-49 119 0
-52 119 0
49 52 -119 0
-49 -120 0
52 -120 0
49 -52 120 0
-49 -121 0
52 -121 0
49 -52 121 0
-49 122 0
-110 122 0
49 110 -122 0
-49 123 0
-111 123 0
49 111 -123 0
-49 -124 0
52 -124 0
49 -52 124 0
-49 125 0
-112 125 0
49 112 -125 0
-49 126 0
-52 126 0
49 52 -126 0
-49 127 0
-52 127 0
49 52 -127 0
-49 -128 0
52 -128 0
49 -52 128 0
-49 129 0
-113 129 0
49 113 -129 0
-49 -130 0
114 -130 0
49 -114 130 0
-49 -131 0
115 -131 0
49 -115 131 0
-49 132 0
-116 132 0
49 116 -132 0
-49 133 0
-117 133 0
49 117 -133 0
-49 134 0
-52 134 0
49 52 -134 0
-49 -135 0
52 -135 0
49 -52 135 0
-49 136 0
-52 136 0
49 52 -136 0
-49 137 0
-52 137 0
49 52 -137 0
-49 -138 0
52 -138 0
49 -52 138 0
-46 139 0
-118 139 0
46 118 -139 0
-46 140 0
-49 140 0
46 49 -140 0
-46 -141 0
119 -141 0
46 -119 141 0
-46 -142 0
120 -142 0
46 -120 142 0
-46 -143 0
121 -143 0
46 -121 143 0
-46 144 0
-122 144 0
46 122 -144 0
-46 -145 0
123 -145 0
46 -123 145 0
-46 -146 0
124 -146 0
46 -124 146 0
-46 -147 0
125 -147 0
46 -125 147 0
-46 148 0
-126 148 0
46 126 -148 0
-46 149 0
-127 149 0
46 127 -149 0
-46 -150 0
128 -150 0
46 -128 150 0
-46 151 0
-49 151 0
46 49 -151 0
-46 -152 0
129 -152 0
46 -129 152 0
-46 -153 0
130 -153 0
46 -130 153 0
-46 -154 0
131 -154 0
46 -131 154 0
-46 155 0
-132 155 0
46 132 -155 0
-46 -156 0
133 -156 0
46 -133 156 0
-46 -157 0
134 -157 0
46 -134 157 0
-46 -158 0
49 -158 0
46 -49 158 0
-46 159 0
-135 159 0
46 135 -159 0
-46 160 0
-136 160 0
46 136 -160 0
-46 -161 0
137 -161 0
46 -137 161 0
-46 -162 0
138 -162 0
46 -138 162 0
-43 163 0
-139 163 0
43 139 -163 0
-43 -164 0
140 -164 0
43 -140 164 0
-43 165 0
-141 165 0
43 141 -165 0
-43 -166 0
46 -166 0
43 -46 166 0
-43 -167 0
142 -167 0
43 -142 167 0
-43 168 0
-143 168 0
43 143 -168 0
-43 -169 0
144 -169 0
43 -144 169 0
-43 170 0
-145 170 0
43 145 -170 0
-43 171 0
-146 171 0
43 146 -171 0
-43 -172 0
147 -172 0
43 -147 172 0
-43 -173 0
148 -173 0
43 -148 173 0
-43 174 0
-149 174 0
43 149 -174 0
-43 175 0
-150 175 0
43 150 -175 0
-43 -176 0
151 -176 0
43 -151 176 0
-43 177 0
-152 177 0
43 152 -177 0
-43 178 0
-46 178 0
43 46 -178 0
-43 179 0
-153 179 0
43 153 -179 0
-43 -180 0
154 -180 0
43 -154 180 0
-43 -181 0
155 -181 0
43 -155 181 0
-43 -182 0
156 -182 0
43 -156 182 0
-43 -183 0
157 -183 0
43 -157 183 0
-43 184 0
-158 184 0
43 158 -184 0
-43 185 0
-46 185 0
43 46 -185 0
-43 -186 0
159 -186 0
43 -159 186 0
-43 -187 0
46 -187 0
43 -46 187 0
-43 188 0
-160 188 0
43 160 -188 0
-43 -189 0
161 -189 0
43 -161 189 0
-43 -190 0
162 -190 0
43 -162 190 0
-40 191 0
-163 191 0
40 163 -191 0
-40 192 0
-164 192 0
40 164 -192 0
-40 -193 0
165 -193 0
40 -165 193 0
-40 -194 0
166 -194 0
40 -166 194 0
-40 -195 0
167 -195 0
40 -167 195 0
-40 -196 0
168 -196 0
40 -168 196 0
-40 -197 0
169 -197 0
40 -169 197 0
-40 -198 0
170 -198 0
40 -170 198 0
-40 199 0
-171 199 0
40 171 -199 0
-40 200 0
-172 200 0
40 172 -200 0
-40 -201 0
173 -201 0
40 -173 201 0
-40 202 0
-174 202 0
40 174 -202 0
-40 203 0
-175 203 0
40 175 -203 0
-40 204 0
-176 204 0
40 176 -204 0
-40 205 0
-177 205 0
40 177 -205 0
-40 206 0
-178 206 0
40 178 -206 0
-40 207 0
-179 207 0
40 179 -207 0
-40 -208 0
180 -208 0
40 -180 208 0
-40 209 0
-181 209 0
40 181 -209 0
-40 -210 0
182 -210 0
40 -182 210 0
-40 211 0
-183 211 0
40 183 -211 0
-40 -212 0
184 -212 0
40 -184 212 0
-40 213 0
-185 213 0
40 185 -213 0
-40 -214 0
186 -214 0
40 -186 214 0
-40 -215 0
43 -215 0
40 -43 215 0
-40 216 0
-43 216 0
40 43 -216 0
-40 217 0
-187 217 0
40 187 -217 0
-40 218 0
-43 218 0
40 43 -218 0
-40 219 0
-188 219 0
40 188 -219 0
-40 220 0
-189 220 0
40 189 -220 0
-40 -221 0
190 -221 0
40 -190 221 0
-37 -222 0
191 -222 0
37 -191 222 0
-37 223 0
-192 223 0
37 192 -223 0
-37 224 0
-193 224 0
37 193 -224 0
-37 225 0
-194 225 0
37 194 -225 0
-37 -226 0
195 -226 0
37 -195 226 0
-37 227 0
-196 227 0
37 196 -227 0
-37 228 0
-197 228 0
37 197 -228 0
-37 229 0
-198 229 0
37 198 -229 0
-37 230 0
-199 230 0
37 199 -230 0
-37 231 0
-200 231 0
37 200 -231 0
-37 232 0
-201 232 0
37 201 -232 0
-37 -233 0
202 -233 0
37 -202 233 0
-37 234 0
-203 234 0
37 203 -234 0
-37 -235 0
204 -235 0
37 -204 235 0
-37 236 0
-205 236 0
37 205 -236 0
-37 -237 0
206 -237 0
37 -206 237 0
-37 238 0
-207 238 0
37 207 -238 0
-37 -239 0
208 -239 0
37 -208 239 0
-37 -240 0
209 -240 0
37 -209 240 0
-37 241 0
-210 241 0
37 210 -241 0
-37 -242 0
211 -242 0
37 -211 242 0
-37 -243 0
212 -243 0
37 -212 243 0
-37 -244 0
213 -244 0
37 -213 244 0
-37 245 0
-214 245 0
37 214 -245 0
-37 246 0
-215 246 0
37 215 -246 0
-37 -247 0
216 -247 0
37 -216 247 0
-37 248 0
-40 248 0
37 40 -248 0
-37 -249 0
217 -249 0
37 -217 249 0
-37 -250 0
218 -250 0
37 -218 250 0
-37 -251 0
219 -251 0
37 -219 251 0
-37 -252 0
220 -252 0
37 -220 252 0
-37 -253 0
221 -253 0
37 -221 253 0
-34 254 0
-222 254 0
34 222 -254 0
-34 255 0
-223 255 0
34 223 -255 0
-34 256 0
-224 256 0
34 224 -256 0
-34 257 0
-225 257 0
34 225 -257 0
-34 -258 0
226 -258 0
34 -226 258 0
-34 259 0
-227 259 0
34 227 -259 0
-34 -260 0
228 -260 0
34 -228 260 0
-34 261 0
-229 261 0
34 229 -261 0
-34 -262 0
230 -262 0
34 -230 262 0
-34 -263 0
231 -263 0
34 -231 263 0
-34 -264 0
232 -264 0
34 -232 264 0
-34 -265 0
233 -265 0
34 -233 265 0
-34 266 0
-234 266 0
34 234 -266 0
-34 267 0
-235 267 0
34 235 -267 0
-34 -268 0
236 -268 0
34 -236 268 0
-34 -269 0
237 -269 0
34 -237 269 0
-34 270 0
-238 270 0
34 238 -270 0
-34 -271 0
239 -271 0
34 -239 271 0
-34 272 0
-240 272 0
34 240 -272 0
-34 -273 0
241 -273 0
34 -241 273 0
-34 274 0
-242 274 0
34 242 -274 0
-34 275 0
-243 275 0
34 243 -275 0
-34 276 0
-244 276 0
34 244 -276 0
-34 -277 0
245 -277 0
34 -245 277 0
-34 -278 0
246 -278 0
34 -246 278 0
-34 -279 0
247 -279 0
34 -247 279 0
-34 280 0
-248 280 0
34 248 -280 0
-34 -281 0
249 -281 0
34 -249 281 0
-34 282 0
-250 282 0
34 250 -282 0
-34 283 0
-251 283 0
34 251 -283 0
-34 284 0
-252 284 0
34 252 -284 0
-34 285 0
-253 285 0
34 253 -285 0
-33 -31 0
254 -31 0
33 -254 31 0
-33 32 0
-255 32 0
33 255 -32 0
-33 1 0
-256 1 0
33 256 -1 0
-33 2 0
-257 2 0
33 257 -2 0
-33 3 0
-258 3 0
33 258 -3 0
-33 -4 0
259 -4 0
33 -259 4 0
-33 5 0
-260 5 0
33 260 -5 0
-33 -6 0
261 -6 0
33 -261 6 0
-33 7 0
-262 7 0
33 262 -7 0
-33 8 0
-263 8 0
33 263 -8 0
-33 9 0
-264 9 0
33 264 -9 0
-33 10 0
-265 10 0
33 265 -10 0
-33 11 0
-266 11 0
33 266 -11 0
-33 -12 0
267 -12 0
33 -267 12 0
-33 -13 0
268 -13 0
33 -268 13 0
-33 14 0
-269 14 0
33 269 -14 0
-33 -15 0
270 -15 0
33 -270 15 0
-33 16 0
-271 16 0
33 271 -16 0
-33 -17 0
272 -17 0
33 -272 17 0
-33 -18 0
273 -18 0
33 -273 18 0
-33 -19 0
274 -19 0
33 -274 19 0
-33 -20 0
275 -20 0
33 -275 20 0
-33 -21 0
276 -21 0
33 -276 21 0
-33 -22 0
277 -22 0
33 -277 22 0
-33 23 0
-278 23 0
33 278 -23 0
-33 24 0
-279 24 0
33 279 -24 0
-33 -25 0
280 -25 0
33 -280 25 0
-33 26 0
-281 26 0
33 281 -26 0
-33 -27 0
282 -27 0
33 -282 27 0
-33 28 0
-283 28 0
33 283 -28 0
-33 -29 0
284 -29 0
33 -284 29 0
-33 30 0
-285 30 0
33 285 -30 0
-414 -416 -418 0
414 416 -418 0
-414 416 418 0
414 -416 418 0
-415 -417 -419 0
415 417 -419 0
-415 417 419 0
415 -417 419 0
-418 -420 0
-419 -420 0
418 419 420 0
-58 420 0
58 -420 0
c __CPROVER_malloc_is_new_array#1 FALSE
c goto_symex::\guard#1 33
c goto_symex::\guard#2 34
c goto_symex::\guard#3 37
c goto_symex::\guard#4 40
c goto_symex::\guard#5 43
c goto_symex::\guard#6 46
c goto_symex::\guard#7 49
c goto_symex::\guard#8 52
c goto_symex::\guard#9 55
c main::1::O!0@1#1 382 383 384 385 386 387 388 389 390 391 392 393 394 395 396 397 398 399 400 401 402 403 404 405 406 407 408 409 410 411 412 413
c main::$tmp::return_value_nondet_uint$1!0@1#1 350 351 352 353 354 355 356 357 358 359 360 361 362 363 364 365 366 367 368 369 370 371 372 373 374 375 376 377 378 379 380 381
c main::1::I!0@1#1 318 319 320 321 322 323 324 325 326 327 328 329 330 331 332 333 334 335 336 337 338 339 340 341 342 343 344 345 346 347 348 349
c main::1::__return_value!0@1#2 31 32 1 2 3 4 5 6 7 8 9 10 11 12 13 14 15 16 17 18 19 20 21 22 23 24 25 26 27 28 29 30
c main::1::__return_value!0@1#1 286 287 288 289 290 291 292 293 294 295 296 297 298 299 300 301 302 303 304 305 306 307 308 309 310 311 312 313 314 315 316 317
c main::1::O!0@1#30 31 32 1 2 3 4 5 6 7 8 9 10 11 12 13 14 15 16 17 18 19 20 21 22 23 24 25 26 27 28 29 30
c main::1::O!0@1#29 254 255 256 257 258 259 260 261 262 263 264 265 266 267 268 269 270 271 272 273 274 275 276 277 278 279 280 281 282 283 284 285
c main::1::O!0@1#28 222 223 224 225 226 227 228 229 230 231 232 233 234 235 236 237 238 239 240 241 242 243 244 245 246 247 248 249 250 251 252 253
c main::1::O!0@1#27 191 192 193 194 195 196 197 198 199 200 201 202 203 204 205 206 207 208 209 210 211 212 213 214 215 216 40 217 218 219 220 221
c main::1::O!0@1#26 163 164 165 166 167 168 169 170 171 172 173 174 175 176 177 178 179 180 181 182 183 184 185 186 43 43 FALSE 187 43 188 189 190
c main::1::O!0@1#25 139 140 141 46 142 143 144 145 146 147 148 149 150 151 152 46 153 154 155 156 157 158 46 159 FALSE FALSE FALSE 46 FALSE 160 161 162
c main::1::O!0@1#24 118 49 119 FALSE 120 121 122 123 124 125 126 127 128 49 129 FALSE 130 131 132 133 134 49 FALSE 135 FALSE FALSE FALSE FALSE FALSE 136 137 138
c main::1::O!0@1#23 109 FALSE 52 FALSE 52 52 110 111 52 112 52 52 52 FALSE 113 FALSE 114 115 116 117 52 FALSE FALSE 52 FALSE FALSE FALSE FALSE FALSE 52 52 52
c main::1::O!0@1#22 55 FALSE FALSE FALSE FALSE FALSE -55 55 FALSE -55 FALSE FALSE FALSE FALSE -55 FALSE -55 -55 -55 -55 FALSE FALSE FALSE FALSE FALSE FALSE FALSE FALSE FALSE FALSE FALSE FALSE
c main::1::O!0@1#21 FALSE FALSE FALSE FALSE FALSE FALSE TRUE FALSE FALSE TRUE FALSE FALSE FALSE FALSE TRUE FALSE TRUE TRUE TRUE TRUE FALSE FALSE FALSE FALSE FALSE FALSE FALSE FALSE FALSE FALSE FALSE FALSE
c main::1::O!0@1#20 FALSE FALSE FALSE FALSE FALSE FALSE FALSE FALSE FALSE FALSE FALSE FALSE FALSE FALSE FALSE FALSE FALSE FALSE FALSE FALSE FALSE FALSE FALSE FALSE FALSE FALSE FALSE FALSE FALSE FALSE FALSE FALSE
c main::1::O!0@1#17 FALSE FALSE TRUE FALSE TRUE TRUE FALSE FALSE TRUE TRUE TRUE TRUE TRUE FALSE FALSE FALSE TRUE TRUE FALSE TRUE TRUE FALSE FALSE TRUE FALSE FALSE FALSE FALSE FALSE TRUE TRUE TRUE
c main::1::O!0@1#14 FALSE FALSE FALSE FALSE FALSE FALSE FALSE FALSE FALSE FALSE FALSE FALSE FALSE FALSE FALSE FALSE FALSE FALSE FALSE FALSE FALSE FALSE FALSE FALSE FALSE FALSE FALSE FALSE FALSE FALSE FALSE FALSE
c main::1::O!0@1#19 TRUE FALSE FALSE FALSE FALSE FALSE FALSE TRUE FALSE FALSE FALSE FALSE FALSE FALSE FALSE FALSE FALSE FALSE FALSE FALSE FALSE FALSE FALSE FALSE FALSE FALSE FALSE FALSE FALSE FALSE FALSE FALSE
c __CPROVER_thread_id!0#1 FALSE FALSE FALSE FALSE FALSE FALSE FALSE FALSE FALSE FALSE FALSE FALSE FALSE FALSE FALSE FALSE FALSE FALSE FALSE FALSE FALSE FALSE FALSE FALSE FALSE FALSE FALSE FALSE FALSE FALSE FALSE FALSE
c main::1::O!0@1#18 FALSE FALSE FALSE FALSE FALSE FALSE FALSE FALSE FALSE FALSE FALSE FALSE FALSE FALSE FALSE FALSE FALSE FALSE FALSE FALSE FALSE FALSE FALSE FALSE FALSE FALSE FALSE FALSE FALSE FALSE FALSE FALSE
c __CPROVER_rounding_mode!0#1 FALSE FALSE FALSE FALSE FALSE FALSE FALSE FALSE FALSE FALSE FALSE FALSE FALSE FALSE FALSE FALSE FALSE FALSE FALSE FALSE FALSE FALSE FALSE FALSE FALSE FALSE FALSE FALSE FALSE FALSE FALSE FALSE
c main::1::O!0@1#3 FALSE TRUE TRUE TRUE TRUE FALSE TRUE FALSE TRUE TRUE TRUE TRUE TRUE FALSE FALSE TRUE FALSE TRUE FALSE FALSE FALSE FALSE FALSE FALSE TRUE TRUE FALSE TRUE FALSE TRUE FALSE TRUE
c __CPROVER_pipe_count#1 FALSE FALSE FALSE FALSE FALSE FALSE FALSE FALSE FALSE FALSE FALSE FALSE FALSE FALSE FALSE FALSE FALSE FALSE FALSE FALSE FALSE FALSE FALSE FALSE FALSE FALSE FALSE FALSE FALSE FALSE FALSE FALSE
c __CPROVER_next_thread_id#1 FALSE FALSE FALSE FALSE FALSE FALSE FALSE FALSE FALSE FALSE FALSE FALSE FALSE FALSE FALSE FALSE FALSE FALSE FALSE FALSE FALSE FALSE FALSE FALSE FALSE FALSE FALSE FALSE FALSE FALSE FALSE FALSE
c main::1::O!0@1#2 FALSE FALSE FALSE FALSE FALSE FALSE FALSE FALSE FALSE FALSE FALSE FALSE FALSE FALSE FALSE FALSE FALSE FALSE FALSE FALSE FALSE FALSE FALSE FALSE FALSE FALSE FALSE FALSE FALSE FALSE FALSE FALSE
c main::1::O!0@1#16 FALSE FALSE FALSE FALSE FALSE FALSE FALSE FALSE FALSE FALSE FALSE FALSE FALSE FALSE FALSE FALSE FALSE FALSE FALSE FALSE FALSE FALSE FALSE FALSE FALSE FALSE FALSE FALSE FALSE FALSE FALSE FALSE
c __CPROVER_memory_leak#1 FALSE FALSE FALSE FALSE FALSE FALSE FALSE FALSE FALSE FALSE FALSE FALSE FALSE FALSE FALSE FALSE FALSE FALSE FALSE FALSE FALSE FALSE FALSE FALSE FALSE FALSE FALSE FALSE FALSE FALSE FALSE FALSE
c main::1::O!0@1#12 FALSE FALSE FALSE FALSE FALSE FALSE FALSE FALSE FALSE FALSE FALSE FALSE FALSE FALSE FALSE FALSE FALSE FALSE FALSE FALSE FALSE FALSE FALSE FALSE FALSE FALSE FALSE FALSE FALSE FALSE FALSE FALSE
c __CPROVER_dead_object#1 FALSE FALSE FALSE FALSE FALSE FALSE FALSE FALSE FALSE FALSE FALSE FALSE FALSE FALSE FALSE FALSE FALSE FALSE FALSE FALSE FALSE FALSE FALSE FALSE FALSE FALSE FALSE FALSE FALSE FALSE FALSE FALSE
c main::1::O!0@1#11 TRUE FALSE TRUE FALSE FALSE TRUE FALSE TRUE TRUE FALSE FALSE TRUE TRUE FALSE TRUE TRUE TRUE FALSE FALSE FALSE FALSE TRUE TRUE FALSE TRUE TRUE FALSE FALSE TRUE TRUE FALSE FALSE
c main::1::O!0@1#15 FALSE TRUE TRUE FALSE FALSE FALSE TRUE TRUE FALSE TRUE TRUE TRUE FALSE TRUE TRUE FALSE FALSE FALSE TRUE TRUE TRUE TRUE FALSE FALSE FALSE FALSE FALSE FALSE FALSE TRUE TRUE FALSE
c __CPROVER_malloc_size#1 FALSE FALSE FALSE FALSE FALSE FALSE FALSE FALSE FALSE FALSE FALSE FALSE FALSE FALSE FALSE FALSE FALSE FALSE FALSE FALSE FALSE FALSE FALSE FALSE FALSE FALSE FALSE FALSE FALSE FALSE FALSE FALSE
c main::1::I!0@1#2 59 60 61 62 63 64 65 66 67 68 69 70 71 72 73 74 75 76 77 78 79 80 81 82 83 84 85 86 87 88 89 90
c main::1::O!0@1#13 TRUE TRUE FALSE TRUE FALSE FALSE TRUE FALSE FALSE FALSE TRUE TRUE FALSE TRUE FALSE TRUE FALSE FALSE TRUE FALSE FALSE FALSE TRUE TRUE FALSE FALSE FALSE TRUE FALSE TRUE FALSE FALSE
c __CPROVER_deallocated#1 FALSE FALSE FALSE FALSE FALSE FALSE FALSE FALSE FALSE FALSE FALSE FALSE FALSE FALSE FALSE FALSE FALSE FALSE FALSE FALSE FALSE FALSE FALSE FALSE FALSE FALSE FALSE FALSE FALSE FALSE FALSE FALSE
c symex::nondet0 59 60 61 62 63 64 65 66 67 68 69 70 71 72 73 74 75 76 77 78 79 80 81 82 83 84 85 86 87 88 89 90
c __CPROVER_malloc_object#1 FALSE FALSE FALSE FALSE FALSE FALSE FALSE FALSE FALSE FALSE FALSE FALSE FALSE FALSE FALSE FALSE FALSE FALSE FALSE FALSE FALSE FALSE FALSE FALSE FALSE FALSE FALSE FALSE FALSE FALSE FALSE FALSE
c main::$tmp::return_value_nondet_uint$1!0@1#2 59 60 61 62 63 64 65 66 67 68 69 70 71 72 73 74 75 76 77 78 79 80 81 82 83 84 85 86 87 88 89 90
c main::1::O!0@1#4 FALSE FALSE FALSE FALSE FALSE FALSE FALSE FALSE FALSE FALSE FALSE FALSE FALSE FALSE FALSE FALSE FALSE FALSE FALSE FALSE FALSE FALSE FALSE FALSE FALSE FALSE FALSE FALSE FALSE FALSE FALSE FALSE
c main::1::O!0@1#5 TRUE TRUE TRUE TRUE FALSE TRUE FALSE TRUE FALSE FALSE FALSE FALSE TRUE TRUE FALSE FALSE TRUE FALSE TRUE FALSE TRUE TRUE TRUE FALSE FALSE FALSE TRUE FALSE TRUE TRUE TRUE TRUE
c main::1::O!0@1#6 FALSE FALSE FALSE FALSE FALSE FALSE FALSE FALSE FALSE FALSE FALSE FALSE FALSE FALSE FALSE FALSE FALSE FALSE FALSE FALSE FALSE FALSE FALSE FALSE FALSE FALSE FALSE FALSE FALSE FALSE FALSE FALSE
c main::1::O!0@1#7 FALSE TRUE TRUE TRUE FALSE TRUE TRUE TRUE TRUE TRUE TRUE FALSE TRUE FALSE TRUE FALSE TRUE FALSE FALSE TRUE FALSE FALSE FALSE TRUE TRUE FALSE TRUE FALSE FALSE FALSE FALSE FALSE
c main::1::O!0@1#8 FALSE FALSE FALSE FALSE FALSE FALSE FALSE FALSE FALSE FALSE FALSE FALSE FALSE FALSE FALSE FALSE FALSE FALSE FALSE FALSE FALSE FALSE FALSE FALSE FALSE FALSE FALSE FALSE FALSE FALSE FALSE FALSE
c main::1::O!0@1#9 TRUE TRUE FALSE FALSE FALSE FALSE FALSE FALSE TRUE TRUE FALSE TRUE TRUE TRUE TRUE TRUE TRUE FALSE TRUE FALSE TRUE FALSE TRUE FALSE FALSE TRUE TRUE TRUE TRUE TRUE TRUE FALSE
c main::1::O!0@1#10 FALSE FALSE FALSE FALSE FALSE FALSE FALSE FALSE FALSE FALSE FALSE FALSE FALSE FALSE FALSE FALSE FALSE FALSE FALSE FALSE FALSE FALSE FALSE FALSE FALSE FALSE FALSE FALSE FALSE FALSE FALSE FALSE
c ind 1 2 3 4 5 6 7 8 9 10 0
c ind 11 12 13 14 15 16 17 18 19 20 0
c ind 21 22 23 24 25 26 27 28 29 30 0
c ind 31 32 0
cr 1 2 3 4 5 6 7 8 9 10 11 12 13 14 15 16 17 18 19 20 21 22 23 24 25 26 27 28 29 30 31 32
